(set-info :smt-lib-version 2.6)
(set-logic LIA)
(set-info
  :source |
 Generated by PSyCO 0.1
 More info in N. P. Lopes and J. Monteiro. Weakest Precondition Synthesis for
 Compiler Optimizations, VMCAI'14.
|)
(set-info :category "industrial")
(set-info :status unsat)
(declare-fun W_S1_V4 () Bool)
(declare-fun W_S1_V2 () Bool)
(declare-fun W_S1_V1 () Bool)
(declare-fun R_S1_V4 () Bool)
(declare-fun R_S1_V2 () Bool)
(declare-fun R_S1_V3 () Bool)
(declare-fun R_S1_V1 () Bool)
(declare-fun DISJ_W_S1_R_S1 () Bool)
(declare-fun W_S1_V3 () Bool)
(assert
 (let
 (($x1925
   (forall
    ((V1_0 Int) (V3_0 Int) 
     (V2_0 Int) (V4_0 Int) 
     (MW_S1_V1 Bool) (MW_S1_V3 Bool) 
     (MW_S1_V2 Bool) (MW_S1_V4 Bool) 
     (S1_V3_!507 Int) (S1_V3_!511 Int) 
     (S1_V3_!515 Int) (S1_V4_!509 Int) 
     (S1_V4_!513 Int) (S1_V4_!517 Int) 
     (S1_V1_!506 Int) (S1_V1_!510 Int) 
     (S1_V1_!514 Int) (S1_V2_!508 Int) 
     (S1_V2_!512 Int) (S1_V2_!516 Int))
    (let ((?x1489 (ite MW_S1_V4 S1_V4_!517 V4_0)))
    (let ((?x1507 (ite MW_S1_V4 S1_V4_!509 V4_0)))
    (let (($x1456 (= ?x1507 ?x1489)))
    (let ((?x1509 (ite MW_S1_V2 S1_V2_!516 V2_0)))
    (let ((?x1490 (ite MW_S1_V2 S1_V2_!508 V2_0)))
    (let (($x1535 (= ?x1490 ?x1509)))
    (let ((?x1455 (ite MW_S1_V3 S1_V3_!515 V3_0)))
    (let ((?x1557 (ite MW_S1_V3 S1_V3_!507 V3_0)))
    (let (($x1886 (= ?x1557 ?x1455)))
    (let ((?x1450 (ite MW_S1_V1 S1_V1_!510 V1_0)))
    (let ((?x1436 (+ 1 ?x1450)))
    (let ((?x1495 (ite MW_S1_V1 S1_V1_!514 ?x1436)))
    (let ((?x2091 (ite MW_S1_V1 S1_V1_!506 V1_0)))
    (let (($x1476 (= ?x2091 ?x1495)))
    (let (($x2661 (and $x1476 $x1886 $x1535 $x1456)))
    (let ((?x1591 (+ (- 1) ?x1509)))
    (let (($x1979 (>= ?x1495 ?x1591)))
    (let ((?x2051 (+ (- 2) ?x1509)))
    (let (($x2073 (>= ?x1495 ?x2051)))
    (let ((?x1589 (+ 1 V1_0)))
    (let (($x2004 (<= V2_0 ?x1589)))
    (let (($x1847 (not $x2004)))
    (let ((?x1876 (+ (- 1) ?x1490)))
    (let (($x1465 (>= ?x2091 ?x1876)))
    (let (($x2006 (<= V2_0 V1_0)))
    (let (($x2351 (not $x2006)))
    (let (($x1493 (and $x2351 $x1465 $x1847 $x2073 $x1979)))
    (let (($x2315 (not $x1493)))
    (let (($x2340 (not MW_S1_V4)))
    (let (($x2354 (or $x2340 W_S1_V4)))
    (let (($x1921 (not MW_S1_V2)))
    (let (($x2239 (or $x1921 W_S1_V2)))
    (let (($x2298 (not MW_S1_V1)))
    (let (($x2230 (or $x2298 W_S1_V1)))
    (let (($x2339 (= S1_V2_!512 S1_V2_!516)))
    (let ((?x2247 (ite MW_S1_V4 S1_V4_!513 V4_0)))
    (let (($x2111 (= V4_0 ?x2247)))
    (let (($x80 (not R_S1_V4)))
    (let (($x2319 (or $x80 $x2111)))
    (let ((?x2320 (ite MW_S1_V2 S1_V2_!512 V2_0)))
    (let (($x2321 (= V2_0 ?x2320)))
    (let (($x78 (not R_S1_V2)))
    (let (($x2297 (or $x78 $x2321)))
    (let ((?x1415 (ite MW_S1_V3 S1_V3_!511 V3_0)))
    (let (($x1487 (= V3_0 ?x1415)))
    (let (($x76 (not R_S1_V3)))
    (let (($x1463 (or $x76 $x1487)))
    (let (($x1894 (= V1_0 ?x1436)))
    (let (($x74 (not R_S1_V1)))
    (let (($x2266 (or $x74 $x1894)))
    (let (($x1867 (and $x2266 $x1463 $x2297 $x2319)))
    (let (($x1414 (not $x1867)))
    (let (($x2094 (or $x1414 $x2339)))
    (let (($x1835 (= S1_V2_!512 S1_V2_!508)))
    (let (($x2306 (= S1_V2_!508 S1_V2_!516)))
    (let (($x2110 (or $x1414 $x2306)))
    (let (($x2032 (= S1_V1_!514 S1_V1_!506)))
    (let (($x1543 (= ?x2247 V4_0)))
    (let (($x1575 (or $x80 $x1543)))
    (let (($x2246 (= ?x2320 V2_0)))
    (let (($x1866 (or $x78 $x2246)))
    (let (($x1573 (= ?x1415 V3_0)))
    (let (($x1451 (or $x76 $x1573)))
    (let ((?x1431 (+ (- 1) V1_0)))
    (let (($x2265 (= ?x1450 ?x1431)))
    (let (($x1912 (or $x74 $x2265)))
    (let (($x1401 (and $x1912 $x1451 $x1866 $x1575)))
    (let (($x2030 (not $x1401)))
    (let (($x1412 (or $x2030 $x2032)))
    (let (($x2271 (= S1_V1_!510 S1_V1_!514)))
    (let (($x1903 (or $x1414 $x2271)))
    (let (($x1603 (= S1_V1_!510 S1_V1_!506)))
    (let (($x1993 (= S1_V4_!517 S1_V4_!513)))
    (let (($x2100 (or $x2030 $x1993)))
    (let (($x2317 (= S1_V4_!509 S1_V4_!517)))
    (let (($x1936 (or $x1414 $x2317)))
    (let (($x1481 (= S1_V4_!509 S1_V4_!513)))
    (let (($x1442 (= S1_V3_!515 S1_V3_!511)))
    (let (($x1413 (or $x2030 $x1442)))
    (let (($x2190 (= S1_V3_!515 S1_V3_!507)))
    (let (($x1446 (or $x2030 $x2190)))
    (let (($x2029 (= S1_V3_!511 S1_V3_!507)))
    (let
    (($x2270
      (and $x2029 $x1446 $x1413 $x1481 $x1936 $x2100 $x1603 $x1903 $x1412
      $x2110 $x1835 $x2094 $x2230 $x2239 $x2354)))
    (let (($x1878 (not $x2270))) (or $x1878 $x2315 $x2661))))))))))))))))))))))))))))))))))))))))))))))))))))))))))))))))))))))))))))))))))))))))
 (let (($x18 (and W_S1_V4 R_S1_V4)))
 (let (($x15 (and W_S1_V2 R_S1_V2)))
 (let (($x10 (and W_S1_V1 R_S1_V1)))
 (let (($x25 (or $x10 R_S1_V3 $x15 $x18)))
 (let (($x26 (not $x25)))
 (let (($x27 (= DISJ_W_S1_R_S1 $x26)))
 (let (($x74 (not R_S1_V1)))
 (let (($x2715 (and $x74 DISJ_W_S1_R_S1)))
 (let (($x1389 (not W_S1_V2)))
 (let (($x1386 (not W_S1_V1)))
 (let (($x2447 (and $x1386 $x1389)))
 (let (($x2361 (and $x1389 DISJ_W_S1_R_S1)))
 (let (($x2304 (or $x2361 $x2447 $x2715))) (and $x2304 W_S1_V3 $x27 $x1925))))))))))))))))
(assert W_S1_V2)
(check-sat)
(exit)

